8171
36, 39, 40, 37, 38, 24, 48, 5, 15, 6, 4, 25, 46, 44, 34, 35, 49, 32, 45, 19, 41, 8, 10, 9, 43, 33, 51, 12, 11, 52, 13, 14, 27, 28, 26, 47, 29, 16, 50, 20, 23, 30, 7, 2, 42, 21, 17, 3, 18, 31, 22, 1
